(declare-fun temp1218_1 () (_ BitVec 64))
(declare-fun var465453 () (_ BitVec 64))
(declare-fun temp1218_2 () (_ BitVec 64))
(declare-fun var465469 () (_ BitVec 64))
(declare-fun temp1218_3 () (_ BitVec 64))
(declare-fun var465473 () (_ BitVec 64))
(declare-fun var465478 () (_ BitVec 64))
(declare-fun var465479 () (_ BitVec 64))
(declare-fun ARGNAME_input_NAMEEND_DIM () (_ BitVec 64))
(declare-fun var465480 () (_ BitVec 64))
(declare-fun var465483 () (_ BitVec 64))
(declare-fun var465484 () (_ BitVec 64))
(declare-fun var465485 () (_ BitVec 64))
(declare-fun temp1218_4 () (_ BitVec 64))
(declare-fun var465486 () (_ BitVec 64))
(declare-fun temp1218_5 () (_ BitVec 64))
(declare-fun var465487 () (_ BitVec 64))
(declare-fun temp1218_6 () (_ BitVec 64))
(declare-fun var465488 () (_ BitVec 64))
(declare-fun temp1218_7 () (_ BitVec 64))
(declare-fun var465522 () (_ BitVec 64))
(declare-fun temp1218_8 () (_ BitVec 64))
(declare-fun temp1218_10 () (_ BitVec 64))
(declare-fun temp1218_9 () (_ BitVec 64))
(declare-fun temp1218_12 () (_ BitVec 64))
(declare-fun temp1218_11 () (_ BitVec 64))
(declare-fun temp1218_13 () (_ BitVec 64))
(declare-fun var863614 () (_ BitVec 64))
(declare-fun temp1218_14 () (_ BitVec 64))
(declare-fun var863635 () (_ BitVec 64))
(declare-fun var997081 () (_ BitVec 64))
(declare-fun var997085 () (_ BitVec 64))
(declare-fun var997343 () (_ BitVec 64))
(declare-fun var997345 () (_ BitVec 64))
(declare-fun temp1218_15 () (_ BitVec 64))
(declare-fun ARGNAME_weight_NAMEEND_DIM () (_ BitVec 64))
(declare-fun var997372 () (_ BitVec 64))
(declare-fun temp1218_16 () (_ BitVec 64))
(declare-fun var997373 () (_ BitVec 64))
(declare-fun temp1218_17 () (_ BitVec 64))
(declare-fun temp1218_18 () (_ BitVec 64))
(declare-fun ARGNAME_groups_NAMEEND () (_ BitVec 64))
(declare-fun var997418 () (_ BitVec 64))
(declare-fun temp1218_19 () (_ BitVec 64))
(declare-fun ARGNAME_stride_NAMEEND_LEN () (_ BitVec 64))
(declare-fun ARGNAME_padding_NAMEEND_LEN () (_ BitVec 64))
(declare-fun ARGNAME_dilation_NAMEEND_LEN () (_ BitVec 64))
(declare-fun var1716000 () (_ BitVec 64))
(declare-fun temp1218_20 () (_ BitVec 64))
(declare-fun temp1218_21 () (_ BitVec 64))
(declare-fun ARGNAME_padding_NAMEEND_VAL () (Array (_ BitVec 64) (_ BitVec 64)))
(declare-fun temp1218_22 () (_ BitVec 64))
(declare-fun temp1218_23 () (_ BitVec 64))
(declare-fun temp1218_24 () (_ BitVec 64))
(declare-fun temp1218_25 () (_ BitVec 64))
(declare-fun temp1218_26 () (_ BitVec 64))
(declare-fun temp1218_27 () (_ BitVec 64))
(declare-fun temp1218_28 () (_ BitVec 64))
(declare-fun temp1218_29 () (_ BitVec 64))
(declare-fun temp1218_30 () (_ BitVec 64))
(declare-fun temp1218_31 () (_ BitVec 64))
(declare-fun temp1218_32 () (_ BitVec 64))
(declare-fun temp1218_33 () (_ BitVec 64))
(declare-fun temp1218_34 () (_ BitVec 64))
(declare-fun temp1218_35 () (_ BitVec 64))
(declare-fun temp1218_36 () (_ BitVec 64))
(declare-fun temp1218_37 () (_ BitVec 64))
(declare-fun temp1218_38 () (_ BitVec 64))
(declare-fun temp1218_39 () (_ BitVec 64))
(declare-fun temp1218_40 () (_ BitVec 64))
(declare-fun temp1218_41 () (_ BitVec 64))
(declare-fun temp1218_42 () (_ BitVec 64))
(declare-fun temp1218_43 () (_ BitVec 64))
(declare-fun temp1218_44 () (_ BitVec 64))
(declare-fun temp1218_45 () (_ BitVec 64))
(declare-fun temp1218_46 () (_ BitVec 64))
(declare-fun temp1218_47 () (_ BitVec 64))
(declare-fun temp1218_48 () (_ BitVec 64))
(declare-fun temp1218_49 () (_ BitVec 64))
(declare-fun temp1218_50 () (_ BitVec 64))
(declare-fun temp1218_51 () (_ BitVec 64))
(declare-fun temp1218_52 () (_ BitVec 64))
(declare-fun temp1218_53 () (_ BitVec 64))
(declare-fun temp1218_54 () (_ BitVec 64))
(declare-fun temp1218_55 () (_ BitVec 64))
(declare-fun temp1218_56 () (_ BitVec 64))
(declare-fun temp1218_57 () (_ BitVec 64))
(declare-fun temp1218_58 () (_ BitVec 64))
(declare-fun temp1218_59 () (_ BitVec 64))
(declare-fun temp1218_60 () (_ BitVec 64))
(declare-fun temp1218_61 () (_ BitVec 64))
(declare-fun var1716002 () (_ BitVec 64))
(declare-fun temp1218_62 () (_ BitVec 64))
(declare-fun temp1218_63 () (_ BitVec 64))
(declare-fun temp1218_64 () (_ BitVec 64))
(declare-fun ARGNAME_stride_NAMEEND_VAL () (Array (_ BitVec 64) (_ BitVec 64)))
(declare-fun temp1218_65 () (_ BitVec 64))
(declare-fun temp1218_66 () (_ BitVec 64))
(declare-fun temp1218_67 () (_ BitVec 64))
(declare-fun temp1218_68 () (_ BitVec 64))
(declare-fun temp1218_69 () (_ BitVec 64))
(declare-fun temp1218_70 () (_ BitVec 64))
(declare-fun temp1218_71 () (_ BitVec 64))
(declare-fun temp1218_72 () (_ BitVec 64))
(declare-fun temp1218_73 () (_ BitVec 64))
(declare-fun temp1218_74 () (_ BitVec 64))
(declare-fun temp1218_75 () (_ BitVec 64))
(declare-fun temp1218_76 () (_ BitVec 64))
(declare-fun temp1218_77 () (_ BitVec 64))
(declare-fun temp1218_78 () (_ BitVec 64))
(declare-fun temp1218_79 () (_ BitVec 64))
(declare-fun temp1218_80 () (_ BitVec 64))
(declare-fun temp1218_81 () (_ BitVec 64))
(declare-fun temp1218_82 () (_ BitVec 64))
(declare-fun temp1218_83 () (_ BitVec 64))
(declare-fun temp1218_84 () (_ BitVec 64))
(declare-fun temp1218_85 () (_ BitVec 64))
(declare-fun temp1218_86 () (_ BitVec 64))
(declare-fun temp1218_87 () (_ BitVec 64))
(declare-fun temp1218_88 () (_ BitVec 64))
(declare-fun temp1218_89 () (_ BitVec 64))
(declare-fun temp1218_90 () (_ BitVec 64))
(declare-fun temp1218_91 () (_ BitVec 64))
(declare-fun temp1218_92 () (_ BitVec 64))
(declare-fun temp1218_93 () (_ BitVec 64))
(declare-fun temp1218_94 () (_ BitVec 64))
(declare-fun temp1218_95 () (_ BitVec 64))
(declare-fun temp1218_96 () (_ BitVec 64))
(declare-fun temp1218_97 () (_ BitVec 64))
(declare-fun temp1218_98 () (_ BitVec 64))
(declare-fun temp1218_99 () (_ BitVec 64))
(declare-fun temp1218_100 () (_ BitVec 64))
(declare-fun temp1218_101 () (_ BitVec 64))
(declare-fun temp1218_102 () (_ BitVec 64))
(declare-fun temp1218_103 () (_ BitVec 64))
(declare-fun temp1218_104 () (_ BitVec 64))
(declare-fun var1716023 () (_ BitVec 64))
(declare-fun temp1218_105 () (_ BitVec 64))
(declare-fun temp1218_106 () (_ BitVec 64))
(declare-fun var1704114 () (_ BitVec 64))
(declare-fun temp1218_107 () (_ BitVec 64))
(declare-fun temp1218_108 () (_ BitVec 64))
(declare-fun ARGNAME_weight_NAMEEND_DIMSIZE
             ()
             (Array (_ BitVec 64) (_ BitVec 64)))
(declare-fun temp1218_109 () (_ BitVec 64))
(declare-fun temp1218_110 () (_ BitVec 64))
(declare-fun temp1218_111 () (_ BitVec 64))
(declare-fun temp1218_112 () (_ BitVec 64))
(declare-fun temp1218_113 () (_ BitVec 64))
(declare-fun temp1218_114 () (_ BitVec 64))
(declare-fun temp1218_115 () (_ BitVec 64))
(declare-fun temp1218_116 () (_ BitVec 64))
(declare-fun temp1218_117 () (_ BitVec 64))
(declare-fun temp1218_118 () (_ BitVec 64))
(declare-fun temp1218_119 () (_ BitVec 64))
(declare-fun temp1218_120 () (_ BitVec 64))
(declare-fun temp1218_121 () (_ BitVec 64))
(declare-fun temp1218_122 () (_ BitVec 64))
(declare-fun temp1218_123 () (_ BitVec 64))
(declare-fun temp1218_124 () (_ BitVec 64))
(declare-fun temp1218_126 () (_ BitVec 64))
(declare-fun temp1218_127 () (_ BitVec 64))
(declare-fun temp1218_125 () (_ BitVec 64))
(declare-fun var1716068 () (_ BitVec 64))
(declare-fun temp1218_128 () (_ BitVec 64))
(declare-fun temp1218_129 () (_ BitVec 64))
(declare-fun temp1218_131 () (_ BitVec 64))
(declare-fun temp1218_132 () (_ BitVec 64))
(declare-fun temp1218_130 () (_ BitVec 64))
(declare-fun var1716090 () (_ BitVec 64))
(declare-fun temp1218_133 () (_ BitVec 64))
(declare-fun var1716091 () (_ BitVec 64))
(declare-fun temp1218_134 () (_ BitVec 64))
(declare-fun var1716110 () (_ BitVec 64))
(declare-fun temp1218_135 () (_ BitVec 64))
(declare-fun var1716111 () (_ BitVec 64))
(declare-fun temp1218_136 () (_ BitVec 64))
(declare-fun temp1218_137 () (_ BitVec 64))
(declare-fun var1705002 () (_ BitVec 64))
(declare-fun temp1218_139 () (_ BitVec 64))
(declare-fun temp1218_140 () (_ BitVec 64))
(declare-fun temp1218_138 () (_ BitVec 64))
(declare-fun var1716123 () (_ BitVec 64))
(declare-fun temp1218_141 () (_ BitVec 64))
(declare-fun temp1218_143 () (_ BitVec 64))
(declare-fun temp1218_144 () (_ BitVec 64))
(declare-fun temp1218_142 () (_ BitVec 64))
(declare-fun temp1218_145 () (_ BitVec 64))
(declare-fun var1979241 () (_ BitVec 64))
(declare-fun temp1218_146 () (_ BitVec 64))
(declare-fun var1716281 () (_ BitVec 64))
(declare-fun temp1218_147 () (_ BitVec 64))
(declare-fun var997490 () (_ BitVec 64))
(declare-fun temp1218_148 () (_ BitVec 64))
(declare-fun temp1218_149 () (_ BitVec 64))
(declare-fun var997620 () (_ BitVec 64))
(declare-fun var3486185 () (_ BitVec 64))
(declare-fun temp1218_150 () (_ BitVec 64))
(declare-fun var3880579 () (_ BitVec 64))
(declare-fun var3880581 () (_ BitVec 64))
(declare-fun var3946124 () (_ BitVec 64))
(declare-fun var3946125 () (_ BitVec 64))
(declare-fun temp1218_152 () (_ BitVec 64))
(declare-fun temp1218_151 () (_ BitVec 64))
(declare-fun temp1218_154 () (_ BitVec 64))
(declare-fun temp1218_153 () (_ BitVec 64))
(declare-fun temp1218_155 () (_ BitVec 64))
(assert (= temp1218_1 #x0000000000000001))
(assert (= var465453 temp1218_1))
(assert (= temp1218_2 #x0000000000000001))
(assert (= var465469 (bvadd var465453 temp1218_2)))
(assert (= temp1218_3 #x0000000000000002))
(assert (= var465473 (bvadd var465453 temp1218_3)))
(assert (= var465478 var465473))
(assert (= var465479
   (ite (= ARGNAME_input_NAMEEND_DIM var465478)
        #x0000000000000001
        #x0000000000000000)))
(assert (= var465480 var465479))
(assert (= var465483 var465469))
(assert (= var465484
   (ite (distinct ARGNAME_input_NAMEEND_DIM var465483)
        #x0000000000000001
        #x0000000000000000)))
(assert (= var465485 var465480))
(assert (= temp1218_4 #x0000000000000001))
(assert (= var465486 (bvand var465485 temp1218_4)))
(assert (= temp1218_5 #x0000000000000000))
(assert (= var465487
   (ite (= var465486 temp1218_5) #x0000000000000001 #x0000000000000000)))
(assert (= var465488 (bvand var465484 var465487)))
(assert (= temp1218_6 #x0000000000000000))
(assert (= var465488 temp1218_6))
(assert (= temp1218_7 #x0000000000000000))
(assert (= var465522
   (ite (= var465485 temp1218_7) #x0000000000000001 #x0000000000000000)))
(assert (= temp1218_8 #x0000000000000001))
(assert (= var465522 temp1218_8))
(assert (= temp1218_10 #x0000000000000000))
(assert (= temp1218_9 temp1218_10))
(assert (= temp1218_12 #x0000000000000001))
(assert (= temp1218_11 temp1218_12))
(assert (= temp1218_13 #x0000000000000000))
(assert (= var863614 temp1218_13))
(assert (= temp1218_14 #x0000000000000001))
(assert (= var863635 temp1218_14))
(assert (= var997081 var863614))
(assert (= var997085 var863635))
(assert (= var997343 var997081))
(assert (= var997345 var997085))
(assert (= temp1218_15 #xfffffffffffffffe))
(assert (= var997372 (bvadd ARGNAME_weight_NAMEEND_DIM temp1218_15)))
(assert (= temp1218_16 #x0000000000000003))
(assert (= var997373
   (ite (bvslt ARGNAME_weight_NAMEEND_DIM temp1218_16)
        #x0000000000000001
        #x0000000000000000)))
(assert (= temp1218_17 #x0000000000000000))
(assert (= var997373 temp1218_17))
(assert (= temp1218_18 #x0000000000000001))
(assert (= var997418
   (ite (bvslt ARGNAME_groups_NAMEEND temp1218_18)
        #x0000000000000001
        #x0000000000000000)))
(assert (= temp1218_19 #x0000000000000000))
(assert (= var997418 temp1218_19))
(assert (= ARGNAME_stride_NAMEEND_LEN var997372))
(assert (= ARGNAME_padding_NAMEEND_LEN var997372))
(assert (= ARGNAME_dilation_NAMEEND_LEN var997372))
(assert (= var1716000 var997343))
(assert (= temp1218_20 #x0000000000000000))
(assert (= temp1218_21 temp1218_20))
(assert (= temp1218_22 (select ARGNAME_padding_NAMEEND_VAL temp1218_21)))
(assert (= temp1218_23 #x0000000000000001))
(assert (= temp1218_24 temp1218_23))
(assert (= temp1218_25 (select ARGNAME_padding_NAMEEND_VAL temp1218_24)))
(assert (= temp1218_26 #x0000000000000002))
(assert (= temp1218_27 temp1218_26))
(assert (= temp1218_28 (select ARGNAME_padding_NAMEEND_VAL temp1218_27)))
(assert (= temp1218_29 #x0000000000000003))
(assert (= temp1218_30 temp1218_29))
(assert (= temp1218_31 (select ARGNAME_padding_NAMEEND_VAL temp1218_30)))
(assert (= temp1218_32 #x0000000000000004))
(assert (= temp1218_33 temp1218_32))
(assert (= temp1218_34 (select ARGNAME_padding_NAMEEND_VAL temp1218_33)))
(assert (= temp1218_35 #x0000000000000005))
(assert (= temp1218_36 temp1218_35))
(assert (= temp1218_37 (select ARGNAME_padding_NAMEEND_VAL temp1218_36)))
(assert (= temp1218_38 #x0000000000000000))
(assert (= temp1218_39 #x0000000000000000))
(assert (= temp1218_40 temp1218_39))
(assert (= temp1218_41 (select ARGNAME_padding_NAMEEND_VAL temp1218_40)))
(assert (= temp1218_42 #x0000000000000000))
(assert (= temp1218_43 #x0000000000000001))
(assert (= temp1218_44 temp1218_43))
(assert (= temp1218_45 (select ARGNAME_padding_NAMEEND_VAL temp1218_44)))
(assert (= temp1218_46 #x0000000000000000))
(assert (= temp1218_47 #x0000000000000002))
(assert (= temp1218_48 temp1218_47))
(assert (= temp1218_49 (select ARGNAME_padding_NAMEEND_VAL temp1218_48)))
(assert (= temp1218_50 #x0000000000000000))
(assert (= temp1218_51 #x0000000000000003))
(assert (= temp1218_52 temp1218_51))
(assert (= temp1218_53 (select ARGNAME_padding_NAMEEND_VAL temp1218_52)))
(assert (= temp1218_54 #x0000000000000000))
(assert (= temp1218_55 #x0000000000000004))
(assert (= temp1218_56 temp1218_55))
(assert (= temp1218_57 (select ARGNAME_padding_NAMEEND_VAL temp1218_56)))
(assert (= temp1218_58 #x0000000000000000))
(assert (= temp1218_59 #x0000000000000005))
(assert (= temp1218_60 temp1218_59))
(assert (= temp1218_61 (select ARGNAME_padding_NAMEEND_VAL temp1218_60)))
(assert (= var1716002
   (ite (and true
             (bvslt temp1218_41 temp1218_38)
             (bvslt temp1218_45 temp1218_42)
             (bvslt temp1218_49 temp1218_46)
             (bvslt temp1218_53 temp1218_50)
             (bvslt temp1218_57 temp1218_54)
             (bvslt temp1218_61 temp1218_58))
        #x0000000000000001
        #x0000000000000000)))
(assert (= temp1218_62 #x0000000000000000))
(assert (= var1716002 temp1218_62))
(assert (= temp1218_63 #x0000000000000000))
(assert (= temp1218_64 temp1218_63))
(assert (= temp1218_65 (select ARGNAME_stride_NAMEEND_VAL temp1218_64)))
(assert (= temp1218_66 #x0000000000000001))
(assert (= temp1218_67 temp1218_66))
(assert (= temp1218_68 (select ARGNAME_stride_NAMEEND_VAL temp1218_67)))
(assert (= temp1218_69 #x0000000000000002))
(assert (= temp1218_70 temp1218_69))
(assert (= temp1218_71 (select ARGNAME_stride_NAMEEND_VAL temp1218_70)))
(assert (= temp1218_72 #x0000000000000003))
(assert (= temp1218_73 temp1218_72))
(assert (= temp1218_74 (select ARGNAME_stride_NAMEEND_VAL temp1218_73)))
(assert (= temp1218_75 #x0000000000000004))
(assert (= temp1218_76 temp1218_75))
(assert (= temp1218_77 (select ARGNAME_stride_NAMEEND_VAL temp1218_76)))
(assert (= temp1218_78 #x0000000000000005))
(assert (= temp1218_79 temp1218_78))
(assert (= temp1218_80 (select ARGNAME_stride_NAMEEND_VAL temp1218_79)))
(assert (= temp1218_81 #x0000000000000000))
(assert (= temp1218_82 #x0000000000000000))
(assert (= temp1218_83 temp1218_82))
(assert (= temp1218_84 (select ARGNAME_stride_NAMEEND_VAL temp1218_83)))
(assert (= temp1218_85 #x0000000000000000))
(assert (= temp1218_86 #x0000000000000001))
(assert (= temp1218_87 temp1218_86))
(assert (= temp1218_88 (select ARGNAME_stride_NAMEEND_VAL temp1218_87)))
(assert (= temp1218_89 #x0000000000000000))
(assert (= temp1218_90 #x0000000000000002))
(assert (= temp1218_91 temp1218_90))
(assert (= temp1218_92 (select ARGNAME_stride_NAMEEND_VAL temp1218_91)))
(assert (= temp1218_93 #x0000000000000000))
(assert (= temp1218_94 #x0000000000000003))
(assert (= temp1218_95 temp1218_94))
(assert (= temp1218_96 (select ARGNAME_stride_NAMEEND_VAL temp1218_95)))
(assert (= temp1218_97 #x0000000000000000))
(assert (= temp1218_98 #x0000000000000004))
(assert (= temp1218_99 temp1218_98))
(assert (= temp1218_100 (select ARGNAME_stride_NAMEEND_VAL temp1218_99)))
(assert (= temp1218_101 #x0000000000000000))
(assert (= temp1218_102 #x0000000000000005))
(assert (= temp1218_103 temp1218_102))
(assert (= temp1218_104 (select ARGNAME_stride_NAMEEND_VAL temp1218_103)))
(assert (= var1716023
   (ite (and true
             (bvsle temp1218_84 temp1218_81)
             (bvsle temp1218_88 temp1218_85)
             (bvsle temp1218_92 temp1218_89)
             (bvsle temp1218_96 temp1218_93)
             (bvsle temp1218_100 temp1218_97)
             (bvsle temp1218_104 temp1218_101))
        #x0000000000000001
        #x0000000000000000)))
(assert (= temp1218_105 #x0000000000000000))
(assert (= var1716023 temp1218_105))
(assert (= temp1218_106 #x0000000000000000))
(assert (= var1704114 temp1218_106))
(assert (= temp1218_107 #x0000000000000000))
(assert (= temp1218_108 temp1218_107))
(assert (= temp1218_109 (select ARGNAME_weight_NAMEEND_DIMSIZE temp1218_108)))
(assert (= temp1218_110 #x0000000000000001))
(assert (= temp1218_111 temp1218_110))
(assert (= temp1218_112 (select ARGNAME_weight_NAMEEND_DIMSIZE temp1218_111)))
(assert (= temp1218_113 #x0000000000000002))
(assert (= temp1218_114 temp1218_113))
(assert (= temp1218_115 (select ARGNAME_weight_NAMEEND_DIMSIZE temp1218_114)))
(assert (= temp1218_116 #x0000000000000003))
(assert (= temp1218_117 temp1218_116))
(assert (= temp1218_118 (select ARGNAME_weight_NAMEEND_DIMSIZE temp1218_117)))
(assert (= temp1218_119 #x0000000000000004))
(assert (= temp1218_120 temp1218_119))
(assert (= temp1218_121 (select ARGNAME_weight_NAMEEND_DIMSIZE temp1218_120)))
(assert (= temp1218_122 #x0000000000000005))
(assert (= temp1218_123 temp1218_122))
(assert (= temp1218_124 (select ARGNAME_weight_NAMEEND_DIMSIZE temp1218_123)))
(assert (= temp1218_126 var1704114))
(assert (= temp1218_127 (select ARGNAME_weight_NAMEEND_DIMSIZE temp1218_126)))
(assert (= temp1218_125 temp1218_127))
(assert (= var1716068
   (ite (bvslt temp1218_125 ARGNAME_groups_NAMEEND)
        #x0000000000000001
        #x0000000000000000)))
(assert (= temp1218_128 #x0000000000000000))
(assert (= var1716068 temp1218_128))
(assert (= temp1218_129 #x0000000000000000))
(assert (= var1704114 temp1218_129))
(assert (= temp1218_131 var1704114))
(assert (= temp1218_132 (select ARGNAME_weight_NAMEEND_DIMSIZE temp1218_131)))
(assert (= temp1218_130 temp1218_132))
(assert (= var1716090 (bvsmod temp1218_130 ARGNAME_groups_NAMEEND)))
(assert (= temp1218_133 #x0000000000000000))
(assert (= var1716091
   (ite (= var1716090 temp1218_133) #x0000000000000001 #x0000000000000000)))
(assert (= temp1218_134 #x0000000000000001))
(assert (= var1716091 temp1218_134))
(assert (= var1716110 var1716000))
(assert (= temp1218_135 #x0000000000000000))
(assert (= var1716111
   (ite (= var1716110 temp1218_135) #x0000000000000001 #x0000000000000000)))
(assert (= temp1218_136 #x0000000000000001))
(assert (= var1716111 temp1218_136))
(assert (= temp1218_137 #x0000000000000001))
(assert (= var1705002 temp1218_137))
(assert (= temp1218_139 var1705002))
(assert (= temp1218_140 (select ARGNAME_weight_NAMEEND_DIMSIZE temp1218_139)))
(assert (= temp1218_138 temp1218_140))
(assert (= var1716123 (bvmul ARGNAME_groups_NAMEEND temp1218_138)))
(assert (= temp1218_141 #x0000000000000000))
(assert (= var1704114 temp1218_141))
(assert (= temp1218_143 var1704114))
(assert (= temp1218_144 (select ARGNAME_weight_NAMEEND_DIMSIZE temp1218_143)))
(assert (= temp1218_142 temp1218_144))
(assert (= temp1218_145 #x0000000000000002))
(assert (= var1979241 temp1218_145))
(assert (= temp1218_146 #x0000000000000001))
(assert (= var1716281 temp1218_146))
(assert (= temp1218_147 #x0000000000000003))
(assert (= var997490
   (ite (= ARGNAME_weight_NAMEEND_DIM temp1218_147)
        #x0000000000000001
        #x0000000000000000)))
(assert (= temp1218_148 #x0000000000000001))
(assert (= var997490 temp1218_148))
(assert (= temp1218_149 #x0000000000000001))
(assert (= var997620 temp1218_149))
(assert (= var3486185 var997620))
(assert (= temp1218_150 #x0000000000000002))
(assert (= var3880579 temp1218_150))
(assert (= var3880581 (bvsub ARGNAME_weight_NAMEEND_DIM var3880579)))
(assert (= var3946124 var3880579))
(assert (= var3946125 var3880581))
(assert (= temp1218_152 #xffffffffffffffff))
(assert (= temp1218_151 temp1218_152))
(assert (= temp1218_154 #xffffffffffffffff))
(assert (= temp1218_153 temp1218_154))
(assert (= temp1218_155 #x0000000000000001))
(assert (= var997490 temp1218_155))
(model-add temp1218_1 () (_ BitVec 64) #x0000000000000001)
(model-add var465453 () (_ BitVec 64) #x0000000000000001)
(model-add temp1218_2 () (_ BitVec 64) #x0000000000000001)
(model-add var465469 () (_ BitVec 64) #x0000000000000002)
(model-add temp1218_3 () (_ BitVec 64) #x0000000000000002)
(model-add var465473 () (_ BitVec 64) #x0000000000000003)
(model-add var465478 () (_ BitVec 64) #x0000000000000003)
(model-add var465479
           ()
           (_ BitVec 64)
           (ite (= ARGNAME_input_NAMEEND_DIM #x0000000000000003)
                #x0000000000000001
                #x0000000000000000))
(model-add var465480
           ()
           (_ BitVec 64)
           (ite (= ARGNAME_input_NAMEEND_DIM #x0000000000000003)
                #x0000000000000001
                #x0000000000000000))
(model-add var465483 () (_ BitVec 64) #x0000000000000002)
(model-add var465484
           ()
           (_ BitVec 64)
           (ite (= ARGNAME_input_NAMEEND_DIM #x0000000000000002)
                #x0000000000000000
                #x0000000000000001))
(model-add var465485
           ()
           (_ BitVec 64)
           (ite (= ARGNAME_input_NAMEEND_DIM #x0000000000000003)
                #x0000000000000001
                #x0000000000000000))
(model-add temp1218_4 () (_ BitVec 64) #x0000000000000001)
(model-add var465486
           ()
           (_ BitVec 64)
           (concat #b000000000000000000000000000000000000000000000000000000000000000
                   (ite (= ARGNAME_input_NAMEEND_DIM #x0000000000000003)
                        #b1
                        #b0)))
(model-add temp1218_5 () (_ BitVec 64) #x0000000000000000)
(model-add var465487
           ()
           (_ BitVec 64)
           (ite (= ARGNAME_input_NAMEEND_DIM #x0000000000000003)
                #x0000000000000000
                #x0000000000000001))
(model-add temp1218_6 () (_ BitVec 64) #x0000000000000000)
(model-add var465488 () (_ BitVec 64) #x0000000000000000)






